File/outputFile/tourFile/lkh_output1.txt
NAME : ../File/prFile/tspFile/tsp_file1.tsp.488.tour
COMMENT : Length = 488
COMMENT : Found by LKH-3 [Keld Helsgaun] Wed Jun 14 17:47:17 2023
TYPE : TOUR
DIMENSION : 30
TOUR_SECTION
1
4
17
23
6
7
8
21
11
22
29
12
26
18
27
25
16
9
14
13
5
2
20
24
3
15
19
10
28
30
-1
EOF
