utils/lkh_output1.tour
NAME : tsp_file.tsp.490.tour
COMMENT : Length = 490
COMMENT : Found by LKH-3 [Keld Helsgaun] Wed Jun 14 10:44:28 2023
TYPE : TOUR
DIMENSION : 30
TOUR_SECTION
1
9
19
29
10
18
28
7
23
8
15
25
27
17
14
4
5
26
6
13
30
16
21
12
3
2
24
22
11
20
-1
EOF
